/* Objective function */
min: - 0.0054fpdi - 0.0054fpdo + 0.05apdi + 0.05apdo + 0.0002pi + 0.0002po - 0.5fsi - 0.5fso;

apdi = 0.0 hi + 0.0 li + 5.75556 ri + 0.0 ci + -1.06907 si + 0.0 ti + 0.03719 fTempIi + 0.05709 ami + -80.20688;
asi = 0.0 hi + -0.0 li + 0.0 ri + 0.0 ci + 0.0 si + 0.0 ti + 0.0 fTempIi + 0.00065 ami + -0.00714;
aTempOi = 0.0 hi + 0.0 li + 0.21581 ri + -0.19485 ci + -0.03398 si + 0.0 ti + 0.80554 fTempIi + -0.00304 ami + 6.33828;
fpdi = 0.0 hi + -0.0 li + 1.24067 ri + -7.80558 ci + -0.00247 si + 0.0 ti + -0.09493 fTempIi + 0.00023 ami + 40.60079;
fsi = 0.0 hi + -0.0 li + -4e-05 ri + -0.07752 ci + 1e-05 si + 0.0 ti + 0.00031 fTempIi + -0.0 ami + 0.74851;
fTempOi = 0.0 hi + 0.0 li + -0.2004 ri + 0.18307 ci + 0.03115 si + -0.0 ti + 0.28571 fTempIi + -0.00289 ami + 9.94682;
pi = 0.0 hi + 0.0 li + 49.6 ri + 3.51111 ci + -3.43524 si + 0.0 ti + -0.0 fTempIi + -0.0 ami + 182.51587;

apdo = 0.0 ho + -0.0 lo + 5.84524 ro + -0.0 co + -0.64405 so + -0.0 to + 0.01293 fTempIo + 0.03472 amo + -47.52455;
aso = 0.0 ho + 0.0 lo + 0.0 ro + 0.0 co + 0.0 so + -0.0 to + 0.0 fTempIo + 0.00065 amo + -0.00714;
aTempOo = 0.0 ho + 0.0 lo + -0.53688 ro + 0.26428 co + 0.04899 so + 0.0 to + 0.67195 fTempIo + 0.00317 amo + 2.46268;
fpdo = 0.0 ho + -0.0 lo + 1.22119 ro + -4.57833 co + 0.00198 so + -0.0 to + -0.06271 fTempIo + -0.00011 amo + 23.90564;
fso = 0.0 ho + -0.0 lo + 0.00013 ro + -0.07708 co + -1e-05 so + -0.0 to + 0.00044 fTempIo + 0.0 amo + 0.74496;
fTempOo = 0.0 ho + -0.0 lo + 0.4873 ro + -0.2469 co + -0.04356 so + -0.0 to + 0.39839 fTempIo + 0.00237 amo + 9.69327;
po = 0.0 ho + -0.0 lo + 48.7 ro + 3.56667 co + -2.00286 so + -0.0 to + 0.0 fTempIo + -0.0 amo + 146.72381;

/* Variable bounds */
aTempOi > 18.6;
1 =r6i + r8i + r10i + r12i + r14i;
ri =6r6i + 8r8i + 10r10i + 12r12i + 14r14i;
1 =s25i + s30i + s40i;
si =25s25i + 30s30i + 40s40i;
ti = 2;
apdi > 100;
apdi < 300;
asi > 0;
asi < 3;
aTempOi > 5;
aTempOi < 25;
fpdi > 100;
fpdi < 300;
fsi > 0;
fsi < 1.25;
fTempOi > 5;
fTempOi < 25;
pi > 0;
ri > 10;
ri < 14;
ci > 3;
ci < 60;
si > 25;
si < 60;
ti > 1;
ti < 3;
fTempIi > 5;
fTempIi < 25;

/* aTempOo < 11.4; */
1 =r6o + r8o + r10o + r12o + r14o;
ro =6r6o + 8r8o + 10r10o + 12r12o + 14r14o;
1 =s25o + s30o + s40o;
so =25s25o + 30s30o + 40s40o;
to = 2;
apdo > 100;
apdo < 300;
aso > 0;
aso < 3;
aTempOo > 5;
aTempOo < 25;
fpdo > 100;
fpdo < 300;
fso > 0;
fso < 1.25;
fTempOo > 5;
fTempOo < 25;
po > 0;
ro > 6;
ro < 10;
co > 3;
co < 60;
so > 25;
so < 60;
to > 1;
to < 3;
fTempIo > 5;
fTempIo < 25;
int hi,li,si,ti,ci,ri,ami;
int ho,lo,so,to,co,ro,amo;
bin s25i,s30i,s40i,s50i,s60i,r6i,r8i,r10i,r12i,r14i;
bin s25o,s30o,s40o,s50o,s60o,r6o,r8o,r10o,r12o,r14o;
